(set-info :status unknown)
(declare-const symbol_55 (_ BitVec 32))
(declare-const symbol_68 (_ BitVec 32))
(declare-const symbol_35 (_ BitVec 32))
(declare-const symbol_25 (_ BitVec 32))
(declare-const symbol_78 (_ BitVec 32))
(declare-const symbol_27 (_ BitVec 32))
(declare-const symbol_73 (_ BitVec 32))
(declare-const symbol_42 (_ BitVec 32))
(declare-const symbol_91 (_ BitVec 32))
(declare-const symbol_58 (_ BitVec 32))
(declare-const symbol_33 (_ BitVec 32))
(declare-const symbol_45 (_ BitVec 32))
(declare-const symbol_85 (_ BitVec 32))
(declare-const symbol_77 (_ BitVec 32))
(declare-const symbol_60 (_ BitVec 32))
(declare-const symbol_10 (_ BitVec 32))
(declare-const symbol_4 (_ BitVec 32))
(declare-const symbol_75 (_ BitVec 32))
(declare-const symbol_29 (_ BitVec 32))
(declare-const symbol_23 (_ BitVec 32))
(declare-const symbol_0 (_ BitVec 32))
(declare-const symbol_82 (_ BitVec 32))
(declare-const symbol_65 (_ BitVec 32))
(declare-const symbol_47 (_ BitVec 32))
(declare-const symbol_52 (_ BitVec 32))
(declare-const symbol_16 (_ BitVec 32))
(declare-const symbol_3 (_ BitVec 32))
(declare-const symbol_14 (_ BitVec 32))
(declare-const symbol_6 (_ BitVec 32))
(declare-const symbol_1 (_ BitVec 32))
(declare-const symbol_22 (_ BitVec 32))
(declare-const symbol_83 (_ BitVec 32))
(declare-const symbol_62 (_ BitVec 32))
(declare-const symbol_80 (_ BitVec 32))
(declare-const symbol_50 (_ BitVec 32))
(declare-const symbol_18 (_ BitVec 32))
(declare-const symbol_66 (_ BitVec 32))
(declare-const symbol_40 (_ BitVec 32))
(declare-const symbol_37 (_ BitVec 32))
(declare-const symbol_93 (_ BitVec 32))
(declare-const symbol_89 (_ BitVec 32))
(declare-const symbol_31 (_ BitVec 32))
(declare-const symbol_20 (_ BitVec 32))
(declare-const symbol_39 (_ BitVec 32))
(declare-const symbol_12 (_ BitVec 32))
(declare-const symbol_8 (_ BitVec 32))
(declare-const symbol_70 (_ BitVec 32))
(declare-const symbol_87 (_ BitVec 32))
(assert (not (bvsge symbol_93 (_ bv0 32))))
(assert (not (bvsge symbol_91 (_ bv0 32))))
(assert (not (bvsge symbol_89 (_ bv0 32))))
(assert (not (bvsge symbol_87 (_ bv0 32))))
(assert (not (bvsge symbol_85 (_ bv0 32))))
(assert (not (bvsge symbol_83 (_ bv0 32))))
(assert (not (bvsge symbol_82 (_ bv0 32))))
(assert (not (bvsge symbol_80 (_ bv0 32))))
(assert (not (bvsge symbol_78 (_ bv0 32))))
(assert (not (bvsge symbol_77 (_ bv0 32))))
(assert (not (bvsge symbol_75 (_ bv0 32))))
(assert (not (bvsge symbol_73 (_ bv0 32))))
(assert (not (bvsge symbol_70 (_ bv0 32))))
(assert (not (bvsge symbol_68 (_ bv0 32))))
(assert (not (bvsge symbol_66 (_ bv0 32))))
(assert (not (bvsge symbol_65 (_ bv0 32))))
(assert (not (bvsge symbol_62 (_ bv0 32))))
(assert (not (bvsge symbol_60 (_ bv0 32))))
(assert (not (bvsge symbol_58 (_ bv0 32))))
(assert (not (bvsge symbol_55 (_ bv0 32))))
(assert (not (bvsge symbol_52 (_ bv0 32))))
(assert (not (bvsge symbol_50 (_ bv0 32))))
(assert (not (bvsge symbol_47 (_ bv0 32))))
(assert (not (bvsge symbol_45 (_ bv0 32))))
(assert (not (bvsge symbol_42 (_ bv0 32))))
(assert (not (bvsge symbol_40 (_ bv0 32))))
(assert (not (bvsge symbol_39 (_ bv0 32))))
(assert (not (bvsge symbol_37 (_ bv0 32))))
(assert (not (bvsge symbol_35 (_ bv0 32))))
(assert (not (bvsge symbol_33 (_ bv0 32))))
(assert (not (bvsge symbol_31 (_ bv0 32))))
(assert (not (bvsge symbol_29 (_ bv0 32))))
(assert (not (bvsge symbol_27 (_ bv0 32))))
(assert (not (bvsge symbol_25 (_ bv0 32))))
(assert (not (bvsge symbol_23 (_ bv0 32))))
(assert (not (bvsge symbol_22 (_ bv0 32))))
(assert (not (bvsge symbol_20 (_ bv0 32))))
(assert (not (bvsge symbol_18 (_ bv0 32))))
(assert (not (bvsge symbol_16 (_ bv0 32))))
(assert (not (bvsge symbol_14 (_ bv0 32))))
(assert (not (bvsge symbol_12 (_ bv0 32))))
(assert (not (bvsge symbol_10 (_ bv0 32))))
(assert (not (bvsge symbol_8 (_ bv0 32))))
(assert (not (bvsge symbol_6 (_ bv0 32))))
(assert (not (bvsge symbol_4 (_ bv0 32))))
(assert (not (bvsge symbol_3 (_ bv0 32))))
(assert (not (bvsge symbol_1 (_ bv0 32))))
(assert (not (bvsge symbol_0 (_ bv0 32))))
(check-sat)